%chk=C:\Users\Nathan_Chapman\Desktop\butane_PES.chk
# opt=modredundant pm6 geom=connectivity

Butane Dihedral Angle

0 1
 C                 -0.54196889    0.54696409    0.00000000
 H                 -0.17241867    1.41524424   -0.50440283
 H                 -1.41360286    0.18539528   -0.50440284
 C                 -0.90328148    0.91160682    1.45192592
 H                 -1.27283172    0.04332668    1.95632876
 H                 -1.65640709    1.67167381    1.45192592
 H                 -0.03164753    1.27317564    1.95632876
 C                  0.90328148   -0.91160682    1.45192592
 H                  1.65501622   -1.67304946    1.45192622
 H                  1.27464997   -0.04377438    1.95576352
 H                  0.03122001   -1.27135218    1.95689330
 C                  0.54196889   -0.54696409    0.00000000
 H                  1.41361146   -0.18540401   -0.50439423
 H                  0.17241026   -1.41523576   -0.50441126

 1 2 1.0 3 1.0 4 1.0 12 1.0
 2
 3
 4 5 1.0 6 1.0 7 1.0
 5
 6
 7
 8 9 1.0 10 1.0 11 1.0 12 1.0
 9
 10
 11
 12 13 1.0 14 1.0
 13
 14

D 8 12 1 4 S 72 5.000000

