# scan hf/3-21g	
	
Title Card Required	
	
0 1	
H	
H 1 R	
	
R 0.5 50 0.05	
	