%chk=N:\H2O_energy_80.chk
# pm6 geom=connectivity

Title Card Required

0 1
 O                 -0.94290556    1.28428308    0.00000000
 H                 -0.02421192    1.52615493    0.00000000
 H                 -1.02157336    2.23102030    0.00000000

 1 2 1.0 3 1.0
 2
 3

