%chk=N:\H2O_energy.chk
# pm6 geom=connectivity

Title Card Required

0 1
 O                 -0.94290556    1.28428308    0.00000000
 H                 -0.02635760    1.03440343    0.00000000
 H                 -1.48440248    2.06484767    0.00000000

 1 2 1.0 3 1.0
 2
 3

