# pm6 scan	
	
H2O with fixed O-H=0.95A	
	
0 1	
O	
H 1 R	
H 1 R 2 A	
	
R 0.95	
A 40. 14 10.	
	