# pm6 scan	
	
C2H4Cl2 Dihedral Angle	
	
0 1	
C	
C 1 R1	
H 1 R2 2 A	
H 1 R2 2 A 3 D1	
Cl 1 R3 2 A 3 -D1	
H 2 R2 1 A 3 D2	
H 2 R2 1 A 4 D2	
Cl 2 R3 1 A 5 D2	
	
R1 1.514	
R2 1.109	
R3 1.79	
A 109.5	
D1 120.	
D2 0. 36 10.	
	